(set-option :pp.decimal true)
(set-option :pp.decimal_precision 7)
(declare-const conc1 Real)
(declare-const conc2 Real)
(declare-const conc3 Real)
(declare-const conc4 Real)
(declare-const conc5 Real)
(declare-const conc6 Real)
(declare-const conc7 Real)
(declare-const conc8 Real)
(declare-const conc9 Real)
(declare-const conc10 Real)
(declare-const conc11 Real)
(declare-const conc12 Real)
(declare-const conc13 Real)
(declare-const conc14 Real)
(declare-const flow1 Real)
(declare-const flow2 Real)
(declare-const flow3 Real)
(assert (>= conc1 0))
(assert (>= conc2 0))
(assert (>= conc3 0))
(assert (>= conc4 0))
(assert (>= conc5 0))
(assert (>= conc6 0))
(assert (>= conc7 0))
(assert (>= conc8 0))
(assert (>= conc9 0))
(assert (>= conc10 0))
(assert (>= conc11 0))
(assert (>= conc12 0))
(assert (>= conc13 0))
(assert (>= conc14 0))
(assert (= flow1 (+ (* 0.226876 conc1 conc1) (* -1. 7.41961e-05 conc3))))
(assert (= flow2 (+ (* 0.24987 conc2 conc3) (* -1. 0.00164459 conc9))))
(assert (= flow3 (+ (* 0.823758 conc4 conc3) (* -1. 0.382382 conc11))))
(assert (= (+ (* -2 flow1) 9.7103 (* -1. 0.0589199 conc1)) 0))
(assert (= (+ (* -1 flow2) 9.55454 (* -1. 0.0986355 conc2)) 0))
(assert (= (+ (* 1 flow1) (* -1 flow2) (* -1 flow3) 0 (* -1. 0.0707652 conc3)) 0))
(assert (= (+ (* -1 flow3) 0 (* -1. 0.127631 conc4)) 0))
(assert (= (+ 0 (* -1. 0.0552969 conc5)) 0))
(assert (= (+ 0 (* -1. 0.0900286 conc6)) 0))
(assert (= (+ 0 (* -1. 0.131641 conc7)) 0))
(assert (= (+ 0 (* -1. 0.110931 conc8)) 0))
(assert (= (+ (* 1 flow2) 0 (* -1. 0.0924591 conc9)) 0))
(assert (= (+ 0 (* -1. 0.0577273 conc10)) 0))
(assert (= (+ (* 1 flow3) 0 (* -1. 0.138636 conc11)) 0))
(assert (= (+ 0 (* -1. 0.113929 conc12)) 0))
(assert (= (+ 0 (* -1. 0.121928 conc13)) 0))
(assert (= (+ 0 (* -1. 0.0705532 conc14)) 0))
(check-sat)
(get-model)
